# vtk DataFile Version 3.0
Model Data
ASCII
DATASET UNSTRUCTURED_GRID
POINTS 52 float
0.000000 0.000000 0.000000
0.250000 0.000000 0.000000
0.250000 0.250000 0.000000
0.000000 0.250000 0.000000
0.000000 0.000000 0.250000
0.250000 0.000000 0.250000
0.250000 0.250000 0.250000
0.000000 0.250000 0.250000
0.000000 0.000000 0.500000
0.250000 0.000000 0.500000
0.250000 0.250000 0.500000
0.000000 0.250000 0.500000
0.000000 0.000000 0.750000
0.250000 0.000000 0.750000
0.250000 0.250000 0.750000
0.000000 0.250000 0.750000
0.000000 0.000000 1.000000
0.250000 0.000000 1.000000
0.250000 0.250000 1.000000
0.000000 0.250000 1.000000
0.000000 0.000000 1.250000
0.250000 0.000000 1.250000
0.250000 0.250000 1.250000
0.000000 0.250000 1.250000
0.000000 0.000000 1.500000
0.250000 0.000000 1.500000
0.250000 0.250000 1.500000
0.000000 0.250000 1.500000
0.000000 0.000000 1.750000
0.250000 0.000000 1.750000
0.250000 0.250000 1.750000
0.000000 0.250000 1.750000
0.000000 0.000000 2.000000
0.250000 0.000000 2.000000
0.250000 0.250000 2.000000
0.000000 0.250000 2.000000
0.000000 0.000000 2.250000
0.250000 0.000000 2.250000
0.250000 0.250000 2.250000
0.000000 0.250000 2.250000
0.000000 0.000000 2.500000
0.250000 0.000000 2.500000
0.250000 0.250000 2.500000
0.000000 0.250000 2.500000
0.000000 0.000000 2.750000
0.250000 0.000000 2.750000
0.250000 0.250000 2.750000
0.000000 0.250000 2.750000
0.000000 0.000000 3.000000
0.250000 0.000000 3.000000
0.250000 0.250000 3.000000
0.000000 0.250000 3.000000
CELLS 12 108
8 0 1 2 3 4 5 6 7
8 4 5 6 7 8 9 10 11
8 8 9 10 11 12 13 14 15
8 12 13 14 15 16 17 18 19
8 16 17 18 19 20 21 22 23
8 20 21 22 23 24 25 26 27
8 24 25 26 27 28 29 30 31
8 28 29 30 31 32 33 34 35
8 32 33 34 35 36 37 38 39
8 36 37 38 39 40 41 42 43
8 40 41 42 43 44 45 46 47
8 44 45 46 47 48 49 50 51
CELL_TYPES 12
12
12
12
12
12
12
12
12
12
12
12
12
POINT_DATA 52
VECTORS Displacement float
0.000000 0.000000 0.000000
0.000000 0.000000 0.000000
0.000000 0.000000 0.000000
0.000000 0.000000 0.000000
-0.001208 -0.000116 -0.001149
-0.001208 0.000116 0.001149
-0.001208 -0.000116 0.001149
-0.001208 0.000116 -0.001149
-0.004631 -0.000082 -0.002216
-0.004631 0.000082 0.002216
-0.004631 -0.000082 0.002216
-0.004631 0.000082 -0.002216
-0.010084 -0.000078 -0.003178
-0.010084 0.000078 0.003178
-0.010084 -0.000078 0.003178
-0.010084 0.000078 -0.003178
-0.017359 -0.000069 -0.004039
-0.017359 0.000069 0.004039
-0.017359 -0.000069 0.004039
-0.017359 0.000069 -0.004039
-0.026254 -0.000060 -0.004798
-0.026254 0.000060 0.004798
-0.026254 -0.000060 0.004798
-0.026254 0.000060 -0.004798
-0.036568 -0.000052 -0.005457
-0.036568 0.000052 0.005457
-0.036568 -0.000052 0.005457
-0.036568 0.000052 -0.005457
-0.048098 -0.000043 -0.006014
-0.048098 0.000043 0.006014
-0.048098 -0.000043 0.006014
-0.048098 0.000043 -0.006014
-0.060640 -0.000035 -0.006470
-0.060640 0.000035 0.006470
-0.060640 -0.000035 0.006470
-0.060640 0.000035 -0.006470
-0.073993 -0.000026 -0.006824
-0.073993 0.000026 0.006824
-0.073993 -0.000026 0.006824
-0.073993 0.000026 -0.006824
-0.087953 -0.000017 -0.007077
-0.087954 0.000017 0.007078
-0.087954 -0.000017 0.007078
-0.087953 0.000017 -0.007077
-0.102322 -0.000008 -0.007230
-0.102316 0.000009 0.007229
-0.102316 -0.000009 0.007229
-0.102322 0.000008 -0.007230
-0.116870 -0.000006 -0.007278
-0.116906 -0.000000 0.007283
-0.116906 0.000000 0.007283
-0.116870 0.000006 -0.007278
CELL_DATA 12
SCALARS Stress float 1
LOOKUP_TABLE default
21831608.944040
2319217.467598
106838827.190632
-9790909.737046
-4853898.410601
42416573.811071
-21831608.916578
-2319217.458107
-106838827.186749
-9790909.737043
4853898.411283
42416573.805432
-21831608.916579
-2319217.458115
-106838827.186785
9790909.737046
-4853898.411262
42416573.805424
21831608.944038
2319217.467591
106838827.190596
9790909.737043
4853898.410609
42416573.811067
21831608.944038
2319217.467591
106838827.190596
9790909.737043
4853898.410609
42416573.811067
21831608.944038
2319217.467591
106838827.190596
9790909.737043
4853898.410609
42416573.811067
21831608.944038
2319217.467591
106838827.190596
9790909.737043
4853898.410609
42416573.811067
21831608.944038
2319217.467591
106838827.190596
9790909.737043
4853898.410609
42416573.811067
21709677.578471
7911320.372657
100637067.887416
-6923726.939777
1421421.949481
39219313.286083
-21709677.741209
-7911320.424873
-100637067.913457
-6923726.939775
-1421421.953133
39219313.325186
-21709677.741212
-7911320.424880
-100637067.913490
6923726.939777
1421421.953153
39219313.325180
21709677.578468
7911320.372650
100637067.887384
6923726.939775
-1421421.949474
39219313.286076
21709677.578468
7911320.372650
100637067.887384
6923726.939775
-1421421.949474
39219313.286076
21709677.578468
7911320.372650
100637067.887384
6923726.939775
-1421421.949474
39219313.286076
21709677.578468
7911320.372650
100637067.887384
6923726.939775
-1421421.949474
39219313.286076
21709677.578468
7911320.372650
100637067.887384
6923726.939775
-1421421.949474
39219313.286076
19310888.257701
6097844.903608
90456594.263831
-6630028.503266
145602.654238
35127080.823135
-19310887.325813
-6097844.632636
-90456594.117492
-6630028.503264
-145602.639760
35127080.596648
-19310887.325815
-6097844.632642
-90456594.117521
6630028.503266
145602.639778
35127080.596642
19310888.257698
6097844.903602
90456594.263803
6630028.503264
-145602.654234
35127080.823128
19310888.257698
6097844.903602
90456594.263803
6630028.503264
-145602.654234
35127080.823128
19310888.257698
6097844.903602
90456594.263803
6630028.503264
-145602.654234
35127080.823128
19310888.257698
6097844.903602
90456594.263803
6630028.503264
-145602.654234
35127080.823128
19310888.257698
6097844.903602
90456594.263803
6630028.503264
-145602.654234
35127080.823128
17375000.625142
5789979.434465
81085035.927503
-5813122.204332
404985.856826
31216807.486072
-17375005.960871
-5789980.823798
-81085036.744298
-5813122.204330
-404985.901211
31216808.792633
-17375005.960873
-5789980.823803
-81085036.744321
5813122.204332
404985.901227
31216808.792627
17375000.625140
5789979.434460
81085035.927480
5813122.204330
-404985.856823
31216807.486066
17375000.625140
5789979.434460
81085035.927480
5813122.204330
-404985.856823
31216807.486066
17375000.625140
5789979.434460
81085035.927480
5813122.204330
-404985.856823
31216807.486066
17375000.625140
5789979.434460
81085035.927480
5813122.204330
-404985.856823
31216807.486066
17375000.625140
5789979.434460
81085035.927480
5813122.204330
-404985.856823
31216807.486066
15345024.155959
5176028.599379
71549021.526961
-5102583.274136
352253.676493
27269544.040981
-15344993.575602
-5176021.565487
-71549016.965980
-5102583.274135
-352253.642394
27269536.497762
-15344993.575605
-5176021.565491
-71549016.965999
5102583.274136
352253.642408
27269536.497756
15345024.155956
5176028.599374
71549021.526942
5102583.274135
-352253.676492
27269544.040975
15345024.155956
5176028.599374
71549021.526942
5102583.274135
-352253.676492
27269544.040975
15345024.155956
5176028.599374
71549021.526942
5102583.274135
-352253.676492
27269544.040975
15345024.155956
5176028.599374
71549021.526942
5102583.274135
-352253.676492
27269544.040975
15345024.155956
5176028.599374
71549021.526942
5102583.274135
-352253.676492
27269544.040975
13334045.496537
4624221.461355
62046414.357363
-4370442.670154
362963.342880
23329773.930427
-13334220.934384
-4624256.501196
-62046439.834691
-4370442.670153
-362962.277857
23329817.519946
-13334220.934386
-4624256.501199
-62046439.834706
4370442.670154
362962.277868
23329817.519941
13334045.496535
4624221.461351
62046414.357348
4370442.670153
-362963.342880
23329773.930422
13334045.496535
4624221.461351
62046414.357348
4370442.670153
-362963.342880
23329773.930422
13334045.496535
4624221.461351
62046414.357348
4370442.670153
-362963.342880
23329773.930422
13334045.496535
4624221.461351
62046414.357348
4370442.670153
-362963.342880
23329773.930422
13334045.496535
4624221.461351
62046414.357348
4370442.670153
-362963.342880
23329773.930422
11319946.312406
4060202.612191
52537166.862079
-3642577.576649
360836.541810
19388639.420385
-11318938.831046
-4060031.755179
-52537024.487814
-3642577.576648
-360849.862334
19388387.303284
-11318938.831046
-4060031.755181
-52537024.487824
3642577.576650
360849.862344
19388387.303278
11319946.312406
4060202.612189
52537166.862069
3642577.576648
-360836.541812
19388639.420380
11319946.312406
4060202.612189
52537166.862069
3642577.576648
-360836.541812
19388639.420380
11319946.312406
4060202.612189
52537166.862069
3642577.576648
-360836.541812
19388639.420380
11319946.312406
4060202.612189
52537166.862069
3642577.576648
-360836.541812
19388639.420380
11319946.312406
4060202.612189
52537166.862069
3642577.576648
-360836.541812
19388639.420380
9302277.546167
3496604.805429
43028459.033145
-2914415.180430
361049.444026
15446854.338667
-9308068.942069
-3497413.593480
-43029255.009128
-2914415.180430
-360931.739093
15448313.863872
-9308068.942070
-3497413.593482
-43029255.009135
2914415.180430
360931.739101
15448313.863867
9302277.546166
3496604.805428
43028459.033139
2914415.180430
-361049.444030
15446854.338661
9302277.546166
3496604.805428
43028459.033139
2914415.180430
-361049.444030
15446854.338661
9302277.546166
3496604.805428
43028459.033139
2914415.180430
-361049.444030
15446854.338661
9302277.546166
3496604.805428
43028459.033139
2914415.180430
-361049.444030
15446854.338661
9302277.546166
3496604.805428
43028459.033139
2914415.180430
-361049.444030
15446854.338661
7309223.121665
2942876.772909
33523986.745938
-2183500.040639
361899.331341
11510612.508845
-7275898.841970
-2939211.722658
-33519534.576672
-2183500.040640
-362811.227905
11502155.756579
-7275898.841973
-2939211.722660
-33519534.576676
2183500.040639
362811.227911
11502155.756575
7309223.121662
2942876.772908
33523986.745935
2183500.040640
-361899.331347
11510612.508839
7309223.121662
2942876.772908
33523986.745935
2183500.040640
-361899.331347
11510612.508839
7309223.121662
2942876.772908
33523986.745935
2183500.040640
-361899.331347
11510612.508839
7309223.121662
2942876.772908
33523986.745935
2183500.040640
-361899.331347
11510612.508839
7309223.121662
2942876.772908
33523986.745935
2183500.040640
-361899.331347
11510612.508839
5175069.492116
2339741.139792
23995263.198206
-1466981.654456
358512.568894
7541696.390441
-5367010.410557
-2355217.078365
-24020178.096999
-1466981.654454
-351923.447674
7590738.766848
-5367010.410553
-2355217.078364
-24020178.096998
1466981.654456
351923.447679
7590738.766840
5175069.492119
2339741.139793
23995263.198206
1466981.654454
-358512.568900
7541696.390437
5175069.492119
2339741.139793
23995263.198206
1466981.654454
-358512.568900
7541696.390437
5175069.492119
2339741.139793
23995263.198206
1466981.654454
-358512.568900
7541696.390437
5175069.492119
2339741.139793
23995263.198206
1466981.654454
-358512.568900
7541696.390437
5175069.492119
2339741.139793
23995263.198206
1466981.654454
-358512.568900
7541696.390437
3846805.377689
1967936.277882
14597854.063845
-679476.344641
367610.955223
3763352.735630
-2740179.315554
-1910779.462713
-14458353.661777
-679476.344641
-413209.392335
3478704.796764
-2740179.315555
-1910779.462713
-14458353.661775
679476.344641
413209.392338
3478704.796762
3846805.377688
1967936.277882
14597854.063846
679476.344641
-367610.955228
3763352.735626
3846805.377688
1967936.277882
14597854.063846
679476.344641
-367610.955228
3763352.735626
3846805.377688
1967936.277882
14597854.063846
679476.344641
-367610.955228
3763352.735626
3846805.377688
1967936.277882
14597854.063846
679476.344641
-367610.955228
3763352.735626
3846805.377688
1967936.277882
14597854.063846
679476.344641
-367610.955228
3763352.735626
-2093585.821274
545247.554632
4488359.477492
-241166.996257
370504.580095
-1126222.975516
-4292831.026302
-692749.928505
-5269869.064513
-241166.996255
-64084.055028
527282.321247
-4292831.026298
-692749.928503
-5269869.064511
241166.996258
64084.055029
527282.321243
-2093585.821270
545247.554633
4488359.477493
241166.996256
-370504.580096
-1126222.975517
-2093585.821270
545247.554633
4488359.477493
241166.996256
-370504.580096
-1126222.975517
-2093585.821270
545247.554633
4488359.477493
241166.996256
-370504.580096
-1126222.975517
-2093585.821270
545247.554633
4488359.477493
241166.996256
-370504.580096
-1126222.975517
-2093585.821270
545247.554633
4488359.477493
241166.996256
-370504.580096
-1126222.975517
